8670
47, 26, 27, 28, 46, 24, 5, 6, 4, 33, 43, 15, 38, 40, 39, 36, 35, 49, 32, 22, 1, 50, 20, 23, 31, 18, 45, 19, 10, 9, 8, 41, 3, 17, 21, 42, 7, 2, 30, 29, 16, 44, 34, 37, 48, 25, 12, 51, 11, 52, 14, 13
